8
2147483647 44 99 76 63 10 92 2 
44 2147483647 40 11 39 67 19 59 
99 40 2147483647 69 27 1 48 93 
76 11 69 2147483647 24 96 4 5 
63 39 27 24 2147483647 25 30 15 
10 67 1 96 25 2147483647 48 89 
92 19 48 4 30 48 2147483647 85 
2 59 93 5 15 89 85 2147483647 
